Copyright (C) 2013-2015, Filipe Brandao
Build (method = -2)
  #dp: 1346
  Step-3' Graph: 46 vertices and 485 arcs (0.00s)
  Step-4' Graph: 46 vertices and 485 arcs (0.00s)
  #V4/#V3 = 1.00
  #A4/#A3 = 1.00
Ready! (0.00s)
Optimize a model with 92 rows, 486 columns and 1374 nonzeros
Found heuristic solution: objective 239
Presolve removed 33 rows and 61 columns
Presolve time: 0.00s
Presolved: 59 rows, 425 columns, 1182 nonzeros
Variable types: 0 continuous, 425 integer (0 binary)
Optimize a model with 59 rows, 425 columns and 1182 nonzeros
Presolved: 59 rows, 425 columns, 1182 nonzeros

Root barrier log...

Ordering time: 0.00s

Barrier statistics:
 AA' NZ     : 5.670e+02
 Factor NZ  : 1.206e+03
 Factor Ops : 3.180e+04 (less than 1 second per iteration)
 Threads    : 1

                  Objective                Residual
Iter       Primal          Dual         Primal    Dual     Compl     Time
   0   1.39054735e+03 -4.65996743e+03  7.50e+03 2.22e-16  3.61e+01     0s
   1   4.59508783e+02 -1.94483173e+03  7.83e+02 5.55e-16  5.43e+00     0s
   2   2.81232372e+02 -3.13264297e+02  1.97e+01 1.55e-15  7.22e-01     0s
   3   2.21712762e+02 -2.27871834e+01  1.32e-01 4.44e-16  2.82e-01     0s
   4   1.83570702e+02  8.41090478e+01  2.17e-02 2.22e-16  1.14e-01     0s
   5   1.63790628e+02  1.36061439e+02  2.64e-03 2.39e-16  3.19e-02     0s
   6   1.58939023e+02  1.56032845e+02  6.12e-04 3.33e-16  3.34e-03     0s
   7   1.58046890e+02  1.57908827e+02  2.62e-05 3.32e-16  1.59e-04     0s
   8   1.58000048e+02  1.57999910e+02  2.98e-13 3.22e-16  1.59e-07     0s
   9   1.58000000e+02  1.58000000e+02  4.53e-14 3.12e-16  1.59e-13     0s

Barrier solved model in 9 iterations and 0.00 seconds
Optimal objective 1.58000000e+02


Root relaxation: objective 1.580000e+02, 109 iterations, 0.00 seconds

    Nodes    |    Current Node    |     Objective Bounds      |     Work
 Expl Unexpl |  Obj  Depth IntInf | Incumbent    BestBd   Gap | It/Node Time

*    0     0               0     158.0000000  158.00000  0.00%     -    0s

Explored 0 nodes (109 simplex iterations) in 0.01 seconds
Thread count was 1 (of 4 available processors)

Optimal solution found (tolerance 0.00e+00)
Best objective 1.580000000000e+02, best bound 1.580000000000e+02, gap 0.0%
Preprocessing time: 0.00 seconds
Gurobi run time: 0.01 seconds
Total run time: 0.01 seconds
Objective: 158
Solution:
6 x [i=1]
5 x [i=2, i=45]
2 x [i=2, i=46]
5 x [i=3, i=44]
3 x [i=3, i=46]
3 x [i=4, i=43]
10 x [i=5, i=42]
5 x [i=6, i=41]
2 x [i=6, i=42]
6 x [i=7]
2 x [i=7, i=42]
1 x [i=8, i=39]
6 x [i=8, i=40]
6 x [i=9, i=38]
1 x [i=9, i=39]
7 x [i=10, i=37]
3 x [i=11, i=36]
3 x [i=11, i=39]
4 x [i=12, i=35]
6 x [i=13, i=34]
2 x [i=13, i=35]
5 x [i=14, i=33]
4 x [i=15, i=32]
1 x [i=15, i=33]
2 x [i=15, i=37]
8 x [i=16, i=31]
8 x [i=17, i=30]
1 x [i=17, i=31]
5 x [i=18, i=29]
1 x [i=18, i=30]
1 x [i=18, i=36]
4 x [i=19]
6 x [i=19, i=28]
6 x [i=20, i=27]
5 x [i=21, i=26]
2 x [i=22, i=25]
2 x [i=22, i=26]
5 x [i=23, i=24]
4 x [i=23, i=25]
